NAME KNAP25
ROWS
 N COST
 L C1
 L C2
COLUMNS
 MA 'MARKER' 'INTORG'
 X0 COST -39
 X0 C1 10
 X0 C2 8
 X1 COST -7
 X1 C1 16
 X1 C2 7
 X2 COST -30
 X2 C1 11
 X2 C2 10
 X3 COST -33
 X3 C1 16
 X3 C2 7
 X4 COST -15
 X4 C1 17
 X4 C2 9
 X5 COST -5
 X5 C1 15
 X5 C2 5
 X6 COST -38
 X6 C1 10
 X6 C2 8
 X7 COST -9
 X7 C1 10
 X7 C2 8
 X8 COST -8
 X8 C1 11
 X8 C2 10
 X9 COST -7
 X9 C1 16
 X9 C2 7
 X10 COST -17
 X10 C1 12
 X10 C2 12
 X11 COST -20
 X11 C1 6
 X11 C2 13
 X12 COST -6
 X12 C1 5
 X12 C2 11
 X13 COST -34
 X13 C1 15
 X13 C2 5
 X14 COST -25
 X14 C1 11
 X14 C2 10
 X15 COST -33
 X15 C1 10
 X15 C2 8
 X16 COST -17
 X16 C1 13
 X16 C2 1
 X17 COST -38
 X17 C1 12
 X17 C2 12
 X18 COST -19
 X18 C1 15
 X18 C2 5
 X19 COST -23
 X19 C1 5
 X19 C2 11
 X20 COST -36
 X20 C1 4
 X20 C2 9
 X21 COST -5
 X21 C1 10
 X21 C2 8
 X22 COST -10
 X22 C1 7
 X22 C2 2
 X23 COST -34
 X23 C1 5
 X23 C2 11
 X24 COST -22
 X24 C1 4
 X24 C2 9
 MA2 'MARKER' 'INTEND'
RHS
 R C1 95
 R C2 77
BOUNDS
 UI B X0 1
 UI B X1 1
 UI B X2 1
 UI B X3 1
 UI B X4 1
 UI B X5 1
 UI B X6 1
 UI B X7 1
 UI B X8 1
 UI B X9 1
 UI B X10 1
 UI B X11 1
 UI B X12 1
 UI B X13 1
 UI B X14 1
 UI B X15 1
 UI B X16 1
 UI B X17 1
 UI B X18 1
 UI B X19 1
 UI B X20 1
 UI B X21 1
 UI B X22 1
 UI B X23 1
 UI B X24 1
ENDATA
